N = 576;
M = 1416;
Edge_Start = [1, 1, 2, 3, 3, 5, 5, 7, 7, 8, 9, 9, 10, 11, 11, 12, 13, 13, 14, 15, 15, 16, 17, 17, 18, 19, 20, 21, 21, 22, 23, 23, 24, 25, 26, 27, 27, 28, 29, 29, 30, 31, 31, 32, 33, 34, 35, 35, 36, 37, 38, 39, 39, 40, 41, 43, 43, 44, 45, 45, 46, 47, 48, 49, 49, 50, 51, 52, 53, 53, 54, 55, 55, 56, 57, 58, 59, 59, 60, 61, 62, 63, 64, 65, 66, 67, 68, 68, 69, 70, 70, 71, 72, 73, 74, 75, 76, 76, 77, 78, 78, 80, 80, 81, 82, 82, 83, 84, 84, 85, 86, 87, 88, 88, 89, 91, 92, 92, 93, 94, 96, 96, 97, 98, 98, 99, 100, 100, 102, 103, 104, 105, 105, 106, 107, 108, 109, 109, 110, 111, 111, 112, 113, 113, 114, 115, 116, 117, 117, 118, 119, 120, 121, 121, 122, 123, 123, 124, 125, 125, 126, 127, 127, 128, 129, 129, 130, 131, 131, 132, 133, 134, 135, 136, 136, 137, 138, 138, 139, 140, 140, 141, 142, 142, 143, 144, 144, 145, 146, 146, 147, 148, 150, 150, 151, 152, 152, 153, 154, 154, 155, 156, 156, 157, 158, 159, 160, 161, 162, 162, 163, 164, 165, 166, 166, 167, 168, 168, 170, 172, 173, 173, 174, 175, 176, 177, 177, 179, 180, 181, 181, 182, 184, 185, 186, 187, 187, 188, 189, 189, 190, 191, 191, 192, 193, 194, 196, 197, 197, 198, 199, 199, 200, 201, 201, 202, 203, 204, 204, 205, 206, 206, 207, 208, 208, 209, 210, 211, 212, 212, 213, 214, 215, 216, 216, 217, 218, 219, 220, 220, 221, 222, 222, 224, 224, 225, 226, 227, 228, 228, 229, 230, 230, 231, 232, 234, 234, 235, 236, 236, 238, 239, 239, 240, 242, 243, 243, 244, 245, 245, 246, 247, 248, 249, 250, 251, 251, 252, 253, 253, 254, 255, 255, 257, 257, 258, 259, 259, 260, 261, 261, 262, 263, 263, 264, 265, 266, 267, 267, 268, 269, 269, 270, 272, 274, 275, 276, 276, 277, 278, 278, 279, 280, 280, 281, 282, 283, 284, 284, 285, 286, 286, 287, 288, 289, 290, 291, 292, 293, 294, 295, 296, 296, 298, 298, 300, 301, 302, 302, 303, 304, 304, 306, 307, 307, 308, 309, 309, 310, 311, 311, 312, 313, 313, 315, 316, 317, 318, 319, 319, 321, 321, 322, 323, 324, 325, 325, 327, 327, 328, 329, 331, 331, 332, 333, 334, 335, 335, 337, 338, 339, 340, 340, 342, 342, 343, 344, 345, 346, 346, 347, 348, 348, 349, 350, 350, 352, 352, 354, 354, 355, 356, 356, 358, 358, 360, 360, 361, 362, 363, 364, 364, 365, 366, 366, 367, 368, 368, 370, 370, 371, 372, 374, 375, 375, 376, 377, 377, 378, 379, 379, 381, 381, 382, 383, 384, 385, 387, 387, 388, 389, 390, 391, 391, 392, 393, 393, 394, 395, 396, 397, 397, 398, 399, 399, 400, 401, 401, 402, 403, 403, 404, 405, 405, 406, 407, 408, 408, 409, 410, 410, 411, 412, 413, 414, 414, 415, 416, 416, 417, 418, 418, 419, 421, 422, 422, 423, 424, 424, 426, 426, 427, 428, 428, 429, 430, 431, 432, 432, 433, 434, 434, 435, 436, 436, 437, 438, 438, 439, 440, 440, 442, 443, 443, 444, 445, 445, 446, 447, 447, 448, 450, 451, 451, 452, 453, 453, 454, 455, 455, 456, 457, 457, 459, 459, 460, 461, 461, 462, 463, 464, 465, 465, 466, 468, 469, 470, 471, 471, 472, 473, 473, 474, 475, 476, 476, 478, 479, 480, 481, 482, 483, 484, 485, 486, 486, 487, 488, 488, 490, 490, 491, 492, 493, 494, 494, 495, 496, 496, 497, 498, 498, 499, 500, 500, 501, 502, 502, 503, 504, 505, 506, 506, 507, 508, 508, 510, 511, 511, 512, 513, 513, 515, 516, 517, 518, 519, 519, 520, 521, 521, 522, 523, 523, 524, 525, 525, 527, 529, 529, 530, 531, 531, 532, 533, 533, 534, 535, 535, 536, 537, 537, 538, 539, 539, 540, 541, 541, 542, 543, 544, 545, 546, 547, 548, 549, 550, 551, 552, 553, 554, 555, 556, 558, 559, 560, 561, 562, 563, 564, 566, 567, 568, 569, 570, 571, 573, 574, 2, 34, 3, 4, 36, 6, 38, 8, 40, 9, 10, 42, 11, 12, 44, 13, 14, 46, 15, 16, 48, 17, 18, 50, 19, 52, 21, 22, 54, 23, 24, 56, 25, 26, 27, 28, 60, 29, 30, 62, 31, 32, 64, 33, 66, 35, 36, 69, 37, 71, 39, 40, 73, 41, 75, 44, 77, 45, 46, 79, 47, 48, 49, 50, 83, 51, 52, 53, 54, 87, 55, 56, 89, 57, 91, 59, 60, 93, 61, 62, 63, 97, 65, 66, 67, 101, 69, 102, 70, 71, 104, 72, 106, 74, 108, 76, 77, 110, 78, 79, 112, 81, 114, 82, 83, 116, 84, 85, 118, 86, 87, 88, 89, 122, 90, 92, 93, 126, 94, 95, 97, 130, 98, 99, 132, 100, 101, 134, 103, 104, 105, 106, 139, 107, 141, 109, 110, 143, 111, 112, 145, 113, 114, 147, 115, 116, 117, 118, 151, 119, 120, 121, 122, 155, 123, 124, 157, 125, 126, 159, 127, 128, 161, 129, 130, 163, 131, 132, 165, 133, 134, 135, 169, 137, 170, 138, 139, 172, 140, 141, 174, 142, 143, 176, 144, 145, 178, 146, 147, 180, 148, 149, 151, 184, 152, 153, 186, 154, 155, 188, 156, 157, 190, 158, 159, 160, 161, 162, 163, 196, 164, 198, 166, 167, 200, 168, 169, 202, 171, 173, 174, 207, 175, 209, 177, 178, 211, 180, 181, 182, 215, 183, 185, 219, 187, 188, 221, 189, 190, 223, 191, 192, 225, 193, 194, 195, 197, 198, 231, 199, 200, 233, 201, 202, 235, 203, 237, 205, 238, 206, 207, 240, 208, 209, 242, 210, 244, 212, 213, 246, 214, 215, 216, 217, 250, 218, 219, 220, 221, 254, 222, 223, 256, 225, 258, 226, 260, 228, 229, 262, 230, 231, 264, 232, 266, 235, 268, 236, 237, 270, 239, 240, 273, 241, 243, 244, 277, 245, 246, 279, 247, 248, 249, 250, 251, 252, 285, 253, 254, 287, 255, 256, 289, 258, 291, 259, 260, 293, 261, 262, 295, 263, 264, 297, 265, 266, 267, 268, 301, 269, 270, 303, 271, 273, 275, 276, 277, 310, 278, 279, 312, 280, 281, 314, 282, 316, 284, 285, 318, 286, 287, 320, 288, 289, 290, 291, 292, 293, 294, 328, 296, 297, 330, 299, 332, 334, 302, 303, 336, 304, 305, 338, 307, 308, 341, 309, 310, 343, 311, 312, 345, 313, 314, 347, 349, 317, 318, 319, 320, 353, 322, 355, 323, 324, 325, 326, 359, 328, 361, 329, 330, 332, 365, 333, 367, 335, 336, 369, 338, 339, 373, 341, 374, 343, 376, 344, 345, 346, 347, 380, 348, 349, 382, 350, 351, 384, 353, 386, 355, 388, 356, 357, 390, 359, 392, 361, 394, 362, 396, 364, 365, 398, 366, 367, 400, 368, 369, 402, 371, 404, 372, 373, 375, 376, 409, 377, 378, 411, 379, 380, 413, 382, 415, 383, 417, 385, 419, 388, 421, 389, 390, 391, 392, 425, 393, 394, 427, 395, 396, 397, 398, 431, 399, 400, 433, 401, 402, 435, 403, 404, 437, 405, 406, 439, 407, 441, 409, 442, 410, 411, 444, 412, 413, 414, 415, 448, 416, 417, 450, 418, 419, 452, 420, 422, 423, 456, 424, 425, 458, 427, 460, 428, 429, 462, 430, 431, 432, 433, 466, 434, 435, 468, 436, 437, 470, 438, 439, 472, 440, 441, 474, 443, 444, 477, 445, 446, 479, 447, 448, 481, 449, 451, 452, 485, 453, 454, 487, 455, 456, 489, 457, 458, 491, 460, 493, 461, 462, 495, 463, 464, 465, 466, 499, 467, 469, 503, 471, 472, 505, 473, 474, 507, 475, 509, 477, 510, 512, 480, 481, 482, 516, 484, 485, 486, 487, 520, 488, 489, 522, 491, 524, 492, 493, 494, 495, 528, 496, 497, 530, 498, 499, 532, 500, 501, 534, 502, 503, 536, 504, 505, 506, 507, 540, 508, 509, 542, 511, 512, 544, 513, 514, 546, 548, 517, 550, 519, 520, 552, 521, 522, 554, 523, 524, 556, 525, 526, 558, 560, 530, 562, 531, 532, 564, 533, 534, 566, 535, 536, 568, 537, 538, 570, 539, 540, 572, 541, 542, 574, 543, 576, 545, 546, 547, 548, 549, 550, 551, 552, 553, 554, 555, 556, 557, 559, 560, 561, 562, 563, 564, 565, 567, 568, 569, 570, 571, 572, 574, 575];
Edge_End = [2, 34, 3, 4, 36, 6, 38, 8, 40, 9, 10, 42, 11, 12, 44, 13, 14, 46, 15, 16, 48, 17, 18, 50, 19, 52, 21, 22, 54, 23, 24, 56, 25, 26, 27, 28, 60, 29, 30, 62, 31, 32, 64, 33, 66, 35, 36, 69, 37, 71, 39, 40, 73, 41, 75, 44, 77, 45, 46, 79, 47, 48, 49, 50, 83, 51, 52, 53, 54, 87, 55, 56, 89, 57, 91, 59, 60, 93, 61, 62, 63, 97, 65, 66, 67, 101, 69, 102, 70, 71, 104, 72, 106, 74, 108, 76, 77, 110, 78, 79, 112, 81, 114, 82, 83, 116, 84, 85, 118, 86, 87, 88, 89, 122, 90, 92, 93, 126, 94, 95, 97, 130, 98, 99, 132, 100, 101, 134, 103, 104, 105, 106, 139, 107, 141, 109, 110, 143, 111, 112, 145, 113, 114, 147, 115, 116, 117, 118, 151, 119, 120, 121, 122, 155, 123, 124, 157, 125, 126, 159, 127, 128, 161, 129, 130, 163, 131, 132, 165, 133, 134, 135, 169, 137, 170, 138, 139, 172, 140, 141, 174, 142, 143, 176, 144, 145, 178, 146, 147, 180, 148, 149, 151, 184, 152, 153, 186, 154, 155, 188, 156, 157, 190, 158, 159, 160, 161, 162, 163, 196, 164, 198, 166, 167, 200, 168, 169, 202, 171, 173, 174, 207, 175, 209, 177, 178, 211, 180, 181, 182, 215, 183, 185, 219, 187, 188, 221, 189, 190, 223, 191, 192, 225, 193, 194, 195, 197, 198, 231, 199, 200, 233, 201, 202, 235, 203, 237, 205, 238, 206, 207, 240, 208, 209, 242, 210, 244, 212, 213, 246, 214, 215, 216, 217, 250, 218, 219, 220, 221, 254, 222, 223, 256, 225, 258, 226, 260, 228, 229, 262, 230, 231, 264, 232, 266, 235, 268, 236, 237, 270, 239, 240, 273, 241, 243, 244, 277, 245, 246, 279, 247, 248, 249, 250, 251, 252, 285, 253, 254, 287, 255, 256, 289, 258, 291, 259, 260, 293, 261, 262, 295, 263, 264, 297, 265, 266, 267, 268, 301, 269, 270, 303, 271, 273, 275, 276, 277, 310, 278, 279, 312, 280, 281, 314, 282, 316, 284, 285, 318, 286, 287, 320, 288, 289, 290, 291, 292, 293, 294, 328, 296, 297, 330, 299, 332, 334, 302, 303, 336, 304, 305, 338, 307, 308, 341, 309, 310, 343, 311, 312, 345, 313, 314, 347, 349, 317, 318, 319, 320, 353, 322, 355, 323, 324, 325, 326, 359, 328, 361, 329, 330, 332, 365, 333, 367, 335, 336, 369, 338, 339, 373, 341, 374, 343, 376, 344, 345, 346, 347, 380, 348, 349, 382, 350, 351, 384, 353, 386, 355, 388, 356, 357, 390, 359, 392, 361, 394, 362, 396, 364, 365, 398, 366, 367, 400, 368, 369, 402, 371, 404, 372, 373, 375, 376, 409, 377, 378, 411, 379, 380, 413, 382, 415, 383, 417, 385, 419, 388, 421, 389, 390, 391, 392, 425, 393, 394, 427, 395, 396, 397, 398, 431, 399, 400, 433, 401, 402, 435, 403, 404, 437, 405, 406, 439, 407, 441, 409, 442, 410, 411, 444, 412, 413, 414, 415, 448, 416, 417, 450, 418, 419, 452, 420, 422, 423, 456, 424, 425, 458, 427, 460, 428, 429, 462, 430, 431, 432, 433, 466, 434, 435, 468, 436, 437, 470, 438, 439, 472, 440, 441, 474, 443, 444, 477, 445, 446, 479, 447, 448, 481, 449, 451, 452, 485, 453, 454, 487, 455, 456, 489, 457, 458, 491, 460, 493, 461, 462, 495, 463, 464, 465, 466, 499, 467, 469, 503, 471, 472, 505, 473, 474, 507, 475, 509, 477, 510, 512, 480, 481, 482, 516, 484, 485, 486, 487, 520, 488, 489, 522, 491, 524, 492, 493, 494, 495, 528, 496, 497, 530, 498, 499, 532, 500, 501, 534, 502, 503, 536, 504, 505, 506, 507, 540, 508, 509, 542, 511, 512, 544, 513, 514, 546, 548, 517, 550, 519, 520, 552, 521, 522, 554, 523, 524, 556, 525, 526, 558, 560, 530, 562, 531, 532, 564, 533, 534, 566, 535, 536, 568, 537, 538, 570, 539, 540, 572, 541, 542, 574, 543, 576, 545, 546, 547, 548, 549, 550, 551, 552, 553, 554, 555, 556, 557, 559, 560, 561, 562, 563, 564, 565, 567, 568, 569, 570, 571, 572, 574, 575, 1, 1, 2, 3, 3, 5, 5, 7, 7, 8, 9, 9, 10, 11, 11, 12, 13, 13, 14, 15, 15, 16, 17, 17, 18, 19, 20, 21, 21, 22, 23, 23, 24, 25, 26, 27, 27, 28, 29, 29, 30, 31, 31, 32, 33, 34, 35, 35, 36, 37, 38, 39, 39, 40, 41, 43, 43, 44, 45, 45, 46, 47, 48, 49, 49, 50, 51, 52, 53, 53, 54, 55, 55, 56, 57, 58, 59, 59, 60, 61, 62, 63, 64, 65, 66, 67, 68, 68, 69, 70, 70, 71, 72, 73, 74, 75, 76, 76, 77, 78, 78, 80, 80, 81, 82, 82, 83, 84, 84, 85, 86, 87, 88, 88, 89, 91, 92, 92, 93, 94, 96, 96, 97, 98, 98, 99, 100, 100, 102, 103, 104, 105, 105, 106, 107, 108, 109, 109, 110, 111, 111, 112, 113, 113, 114, 115, 116, 117, 117, 118, 119, 120, 121, 121, 122, 123, 123, 124, 125, 125, 126, 127, 127, 128, 129, 129, 130, 131, 131, 132, 133, 134, 135, 136, 136, 137, 138, 138, 139, 140, 140, 141, 142, 142, 143, 144, 144, 145, 146, 146, 147, 148, 150, 150, 151, 152, 152, 153, 154, 154, 155, 156, 156, 157, 158, 159, 160, 161, 162, 162, 163, 164, 165, 166, 166, 167, 168, 168, 170, 172, 173, 173, 174, 175, 176, 177, 177, 179, 180, 181, 181, 182, 184, 185, 186, 187, 187, 188, 189, 189, 190, 191, 191, 192, 193, 194, 196, 197, 197, 198, 199, 199, 200, 201, 201, 202, 203, 204, 204, 205, 206, 206, 207, 208, 208, 209, 210, 211, 212, 212, 213, 214, 215, 216, 216, 217, 218, 219, 220, 220, 221, 222, 222, 224, 224, 225, 226, 227, 228, 228, 229, 230, 230, 231, 232, 234, 234, 235, 236, 236, 238, 239, 239, 240, 242, 243, 243, 244, 245, 245, 246, 247, 248, 249, 250, 251, 251, 252, 253, 253, 254, 255, 255, 257, 257, 258, 259, 259, 260, 261, 261, 262, 263, 263, 264, 265, 266, 267, 267, 268, 269, 269, 270, 272, 274, 275, 276, 276, 277, 278, 278, 279, 280, 280, 281, 282, 283, 284, 284, 285, 286, 286, 287, 288, 289, 290, 291, 292, 293, 294, 295, 296, 296, 298, 298, 300, 301, 302, 302, 303, 304, 304, 306, 307, 307, 308, 309, 309, 310, 311, 311, 312, 313, 313, 315, 316, 317, 318, 319, 319, 321, 321, 322, 323, 324, 325, 325, 327, 327, 328, 329, 331, 331, 332, 333, 334, 335, 335, 337, 338, 339, 340, 340, 342, 342, 343, 344, 345, 346, 346, 347, 348, 348, 349, 350, 350, 352, 352, 354, 354, 355, 356, 356, 358, 358, 360, 360, 361, 362, 363, 364, 364, 365, 366, 366, 367, 368, 368, 370, 370, 371, 372, 374, 375, 375, 376, 377, 377, 378, 379, 379, 381, 381, 382, 383, 384, 385, 387, 387, 388, 389, 390, 391, 391, 392, 393, 393, 394, 395, 396, 397, 397, 398, 399, 399, 400, 401, 401, 402, 403, 403, 404, 405, 405, 406, 407, 408, 408, 409, 410, 410, 411, 412, 413, 414, 414, 415, 416, 416, 417, 418, 418, 419, 421, 422, 422, 423, 424, 424, 426, 426, 427, 428, 428, 429, 430, 431, 432, 432, 433, 434, 434, 435, 436, 436, 437, 438, 438, 439, 440, 440, 442, 443, 443, 444, 445, 445, 446, 447, 447, 448, 450, 451, 451, 452, 453, 453, 454, 455, 455, 456, 457, 457, 459, 459, 460, 461, 461, 462, 463, 464, 465, 465, 466, 468, 469, 470, 471, 471, 472, 473, 473, 474, 475, 476, 476, 478, 479, 480, 481, 482, 483, 484, 485, 486, 486, 487, 488, 488, 490, 490, 491, 492, 493, 494, 494, 495, 496, 496, 497, 498, 498, 499, 500, 500, 501, 502, 502, 503, 504, 505, 506, 506, 507, 508, 508, 510, 511, 511, 512, 513, 513, 515, 516, 517, 518, 519, 519, 520, 521, 521, 522, 523, 523, 524, 525, 525, 527, 529, 529, 530, 531, 531, 532, 533, 533, 534, 535, 535, 536, 537, 537, 538, 539, 539, 540, 541, 541, 542, 543, 544, 545, 546, 547, 548, 549, 550, 551, 552, 553, 554, 555, 556, 558, 559, 560, 561, 562, 563, 564, 566, 567, 568, 569, 570, 571, 573, 574];
L = [3, 12, 16, 4, 8, 11, 17, 13, 17, 2, 17, 15, 15, 16, 17, 4, 13, 19, 16, 1, 17, 8, 4, 7, 11, 7, 15, 12, 8, 15, 6, 12, 1, 16, 7, 7, 1, 6, 18, 6, 13, 11, 12, 5, 3, 1, 13, 16, 16, 19, 14, 12, 12, 1, 6, 11, 5, 2, 15, 12, 1, 11, 2, 14, 3, 4, 9, 13, 13, 4, 15, 1, 10, 1, 11, 6, 5, 9, 11, 10, 14, 1, 18, 6, 9, 14, 1, 6, 15, 1, 13, 12, 7, 3, 13, 8, 7, 19, 14, 1, 6, 10, 8, 4, 6, 5, 16, 19, 1, 6, 9, 14, 16, 11, 8, 15, 11, 19, 1, 6, 16, 12, 3, 10, 13, 16, 9, 7, 16, 12, 12, 7, 5, 16, 11, 6, 18, 16, 12, 18, 10, 12, 2, 2, 15, 4, 10, 17, 10, 1, 3, 3, 10, 9, 15, 11, 5, 6, 6, 10, 11, 10, 10, 16, 16, 12, 11, 18, 14, 11, 1, 14, 5, 11, 2, 12, 5, 12, 7, 8, 1, 15, 6, 17, 9, 17, 15, 1, 5, 3, 19, 6, 1, 15, 9, 16, 6, 1, 18, 13, 16, 7, 2, 10, 6, 11, 8, 15, 15, 18, 4, 11, 1, 10, 3, 16, 3, 8, 1, 4, 14, 10, 11, 4, 18, 1, 17, 8, 14, 6, 16, 1, 6, 12, 11, 16, 8, 14, 9, 18, 4, 15, 7, 8, 7, 3, 16, 17, 17, 7, 11, 7, 17, 13, 17, 10, 19, 14, 19, 9, 16, 9, 15, 1, 13, 8, 17, 6, 13, 2, 9, 17, 15, 3, 10, 13, 5, 7, 19, 8, 1, 15, 8, 14, 3, 16, 19, 4, 17, 11, 17, 1, 1, 3, 13, 7, 19, 12, 6, 15, 3, 9, 13, 11, 1, 8, 11, 15, 5, 8, 8, 9, 6, 17, 1, 15, 6, 18, 14, 6, 19, 15, 4, 10, 15, 8, 18, 8, 1, 12, 3, 17, 2, 15, 13, 13, 8, 15, 13, 15, 17, 9, 13, 14, 7, 3, 1, 3, 7, 4, 2, 1, 9, 15, 15, 11, 8, 4, 12, 5, 8, 9, 18, 18, 4, 6, 9, 13, 10, 4, 15, 4, 18, 9, 10, 14, 18, 6, 3, 12, 4, 15, 1, 11, 11, 16, 18, 5, 18, 4, 18, 9, 4, 18, 14, 15, 8, 3, 15, 8, 9, 5, 4, 15, 2, 1, 8, 4, 9, 4, 4, 18, 2, 3, 2, 13, 3, 10, 8, 10, 19, 2, 19, 15, 17, 12, 16, 14, 4, 2, 1, 1, 16, 13, 11, 3, 11, 15, 5, 6, 3, 14, 1, 18, 14, 8, 13, 10, 6, 17, 16, 18, 12, 11, 16, 3, 6, 14, 13, 9, 18, 15, 15, 14, 10, 6, 11, 6, 5, 5, 1, 9, 13, 12, 4, 12, 11, 2, 9, 15, 18, 1, 17, 15, 19, 6, 17, 14, 7, 9, 6, 19, 14, 14, 8, 16, 16, 7, 9, 10, 11, 1, 8, 6, 7, 13, 2, 6, 7, 11, 2, 15, 13, 1, 12, 13, 18, 11, 9, 14, 4, 10, 12, 3, 1, 12, 13, 3, 11, 14, 8, 14, 11, 3, 1, 14, 3, 11, 12, 5, 18, 3, 5, 14, 4, 12, 14, 12, 11, 18, 3, 17, 7, 6, 3, 8, 11, 18, 11, 19, 17, 15, 1, 1, 18, 1, 1, 8, 17, 2, 2, 4, 15, 10, 17, 5, 1, 5, 10, 6, 8, 4, 8, 13, 18, 13, 12, 1, 12, 8, 5, 11, 3, 5, 10, 16, 11, 4, 16, 1, 14, 17, 9, 1, 13, 11, 3, 14, 9, 4, 5, 4, 16, 9, 9, 8, 9, 3, 11, 17, 1, 11, 14, 7, 19, 12, 11, 12, 2, 15, 18, 5, 15, 15, 5, 7, 12, 15, 7, 8, 7, 9, 8, 1, 1, 14, 14, 7, 2, 7, 12, 1, 3, 12, 12, 10, 16, 16, 17, 17, 12, 8, 4, 12, 3, 6, 9, 9, 8, 2, 17, 7, 1, 10, 6, 9, 10, 6, 13, 18, 5, 8, 2, 5, 15, 4, 3, 2, 18, 19, 14, 8, 17, 3, 16, 13, 16, 13, 8, 14, 8, 18, 10, 1, 4, 9, 16, 4, 3, 12, 16, 4, 8, 11, 17, 13, 17, 2, 17, 15, 15, 16, 17, 4, 13, 19, 16, 1, 17, 8, 4, 7, 11, 7, 15, 12, 8, 15, 6, 12, 1, 16, 7, 7, 1, 6, 18, 6, 13, 11, 12, 5, 3, 1, 13, 16, 16, 19, 14, 12, 12, 1, 6, 11, 5, 2, 15, 12, 1, 11, 2, 14, 3, 4, 9, 13, 13, 4, 15, 1, 10, 1, 11, 6, 5, 9, 11, 10, 14, 1, 18, 6, 9, 14, 1, 6, 15, 1, 13, 12, 7, 3, 13, 8, 7, 19, 14, 1, 6, 10, 8, 4, 6, 5, 16, 19, 1, 6, 9, 14, 16, 11, 8, 15, 11, 19, 1, 6, 16, 12, 3, 10, 13, 16, 9, 7, 16, 12, 12, 7, 5, 16, 11, 6, 18, 16, 12, 18, 10, 12, 2, 2, 15, 4, 10, 17, 10, 1, 3, 3, 10, 9, 15, 11, 5, 6, 6, 10, 11, 10, 10, 16, 16, 12, 11, 18, 14, 11, 1, 14, 5, 11, 2, 12, 5, 12, 7, 8, 1, 15, 6, 17, 9, 17, 15, 1, 5, 3, 19, 6, 1, 15, 9, 16, 6, 1, 18, 13, 16, 7, 2, 10, 6, 11, 8, 15, 15, 18, 4, 11, 1, 10, 3, 16, 3, 8, 1, 4, 14, 10, 11, 4, 18, 1, 17, 8, 14, 6, 16, 1, 6, 12, 11, 16, 8, 14, 9, 18, 4, 15, 7, 8, 7, 3, 16, 17, 17, 7, 11, 7, 17, 13, 17, 10, 19, 14, 19, 9, 16, 9, 15, 1, 13, 8, 17, 6, 13, 2, 9, 17, 15, 3, 10, 13, 5, 7, 19, 8, 1, 15, 8, 14, 3, 16, 19, 4, 17, 11, 17, 1, 1, 3, 13, 7, 19, 12, 6, 15, 3, 9, 13, 11, 1, 8, 11, 15, 5, 8, 8, 9, 6, 17, 1, 15, 6, 18, 14, 6, 19, 15, 4, 10, 15, 8, 18, 8, 1, 12, 3, 17, 2, 15, 13, 13, 8, 15, 13, 15, 17, 9, 13, 14, 7, 3, 1, 3, 7, 4, 2, 1, 9, 15, 15, 11, 8, 4, 12, 5, 8, 9, 18, 18, 4, 6, 9, 13, 10, 4, 15, 4, 18, 9, 10, 14, 18, 6, 3, 12, 4, 15, 1, 11, 11, 16, 18, 5, 18, 4, 18, 9, 4, 18, 14, 15, 8, 3, 15, 8, 9, 5, 4, 15, 2, 1, 8, 4, 9, 4, 4, 18, 2, 3, 2, 13, 3, 10, 8, 10, 19, 2, 19, 15, 17, 12, 16, 14, 4, 2, 1, 1, 16, 13, 11, 3, 11, 15, 5, 6, 3, 14, 1, 18, 14, 8, 13, 10, 6, 17, 16, 18, 12, 11, 16, 3, 6, 14, 13, 9, 18, 15, 15, 14, 10, 6, 11, 6, 5, 5, 1, 9, 13, 12, 4, 12, 11, 2, 9, 15, 18, 1, 17, 15, 19, 6, 17, 14, 7, 9, 6, 19, 14, 14, 8, 16, 16, 7, 9, 10, 11, 1, 8, 6, 7, 13, 2, 6, 7, 11, 2, 15, 13, 1, 12, 13, 18, 11, 9, 14, 4, 10, 12, 3, 1, 12, 13, 3, 11, 14, 8, 14, 11, 3, 1, 14, 3, 11, 12, 5, 18, 3, 5, 14, 4, 12, 14, 12, 11, 18, 3, 17, 7, 6, 3, 8, 11, 18, 11, 19, 17, 15, 1, 1, 18, 1, 1, 8, 17, 2, 2, 4, 15, 10, 17, 5, 1, 5, 10, 6, 8, 4, 8, 13, 18, 13, 12, 1, 12, 8, 5, 11, 3, 5, 10, 16, 11, 4, 16, 1, 14, 17, 9, 1, 13, 11, 3, 14, 9, 4, 5, 4, 16, 9, 9, 8, 9, 3, 11, 17, 1, 11, 14, 7, 19, 12, 11, 12, 2, 15, 18, 5, 15, 15, 5, 7, 12, 15, 7, 8, 7, 9, 8, 1, 1, 14, 14, 7, 2, 7, 12, 1, 3, 12, 12, 10, 16, 16, 17, 17, 12, 8, 4, 12, 3, 6, 9, 9, 8, 2, 17, 7, 1, 10, 6, 9, 10, 6, 13, 18, 5, 8, 2, 5, 15, 4, 3, 2, 18, 19, 14, 8, 17, 3, 16, 13, 16, 13, 8, 14, 8, 18, 10, 1, 4, 9, 16, 4];
T = [8, 6, 19, 6, 14, 13, 21, 19, 9, 9, 5, 12, 15, 19, 20, 7, 13, 16, 23, 4, 20, 9, 1, 13, 6, 11, 16, 11, 13, 21, 11, 9, 8, 19, 1, 1, 9, 1, 24, 9, 20, 10, 6, 8, 5, 2, 6, 26, 18, 15, 20, 23, 14, 3, 4, 7, 1, 10, 13, 14, 4, 13, 3, 11, 1, 3, 12, 8, 16, 6, 13, 1, 13, 1, 3, 10, 14, 4, 5, 12, 3, 3, 18, 13, 8, 19, 12, 1, 4, 2, 17, 7, 6, 1, 10, 11, 7, 8, 24, 2, 1, 4, 15, 6, 3, 8, 10, 9, 5, 7, 9, 19, 15, 11, 13, 17, 1, 18, 2, 5, 10, 11, 1, 7, 18, 12, 7, 20, 12, 12, 11, 3, 3, 25, 1, 6, 21, 18, 14, 17, 10, 16, 3, 1, 12, 1, 10, 12, 15, 1, 1, 6, 13, 16, 12, 12, 10, 3, 1, 8, 17, 18, 8, 8, 19, 11, 5, 28, 18, 9, 1, 10, 2, 19, 4, 12, 1, 14, 5, 9, 1, 14, 1, 13, 12, 22, 21, 1, 11, 2, 21, 10, 1, 12, 2, 15, 7, 1, 16, 13, 18, 5, 1, 5, 9, 28, 14, 12, 9, 23, 9, 11, 5, 1, 2, 24, 3, 12, 2, 1, 19, 14, 8, 1, 18, 9, 16, 1, 8, 9, 22, 1, 1, 17, 12, 16, 1, 9, 12, 20, 2, 21, 1, 2, 11, 7, 17, 15, 12, 4, 6, 16, 24, 13, 12, 6, 19, 12, 22, 13, 23, 10, 12, 1, 9, 9, 13, 6, 8, 1, 7, 9, 25, 6, 1, 11, 6, 2, 19, 3, 1, 20, 7, 11, 6, 11, 18, 1, 25, 20, 13, 10, 7, 5, 13, 7, 17, 8, 11, 22, 9, 9, 15, 9, 1, 10, 14, 18, 8, 6, 14, 5, 7, 24, 5, 6, 1, 20, 21, 1, 28, 8, 9, 12, 14, 4, 13, 4, 1, 10, 1, 11, 5, 14, 13, 13, 1, 15, 12, 10, 9, 6, 13, 16, 5, 2, 3, 5, 1, 1, 2, 1, 17, 20, 7, 16, 11, 5, 8, 1, 1, 17, 15, 26, 1, 5, 15, 13, 3, 4, 26, 3, 23, 10, 12, 8, 22, 6, 1, 14, 10, 14, 2, 15, 21, 6, 10, 1, 19, 10, 20, 1, 3, 19, 8, 11, 6, 1, 11, 8, 1, 1, 2, 17, 1, 15, 5, 1, 12, 14, 1, 18, 1, 3, 1, 16, 1, 19, 3, 12, 14, 1, 21, 14, 19, 7, 17, 18, 3, 1, 1, 2, 6, 12, 12, 9, 12, 13, 6, 8, 3, 10, 1, 17, 14, 6, 18, 8, 3, 24, 9, 16, 8, 9, 9, 10, 2, 21, 5, 6, 8, 13, 9, 5, 4, 14, 9, 8, 10, 2, 13, 1, 12, 9, 1, 14, 3, 1, 2, 18, 17, 3, 19, 10, 14, 3, 20, 14, 22, 9, 4, 20, 14, 9, 4, 9, 18, 7, 10, 18, 2, 1, 10, 9, 1, 9, 1, 2, 14, 10, 2, 19, 8, 1, 9, 15, 12, 11, 10, 23, 9, 15, 16, 1, 1, 5, 18, 4, 11, 14, 10, 15, 14, 2, 2, 24, 7, 7, 22, 4, 22, 6, 6, 17, 8, 22, 10, 7, 10, 20, 9, 18, 10, 11, 6, 4, 8, 17, 6, 12, 8, 16, 7, 4, 12, 5, 1, 11, 20, 1, 1, 3, 11, 2, 20, 1, 1, 11, 10, 3, 12, 4, 14, 20, 16, 12, 4, 1, 7, 9, 2, 3, 1, 4, 17, 24, 6, 5, 8, 1, 21, 6, 8, 4, 17, 4, 8, 10, 9, 1, 1, 7, 23, 1, 7, 13, 7, 7, 18, 19, 8, 10, 14, 1, 14, 13, 14, 13, 1, 14, 28, 9, 7, 11, 6, 6, 13, 20, 8, 4, 11, 2, 1, 1, 1, 8, 12, 6, 1, 11, 7, 1, 4, 17, 8, 18, 17, 17, 15, 17, 15, 12, 6, 6, 1, 2, 15, 11, 7, 1, 25, 12, 1, 17, 1, 8, 11, 8, 23, 18, 1, 10, 5, 5, 12, 2, 1, 7, 11, 23, 19, 6, 21, 7, 14, 16, 22, 14, 9, 26, 6, 24, 14, 6, 9, 6, 5, 2, 8, 6, 19, 6, 14, 13, 21, 19, 9, 9, 5, 12, 15, 19, 20, 7, 13, 16, 23, 4, 20, 9, 1, 13, 6, 11, 16, 11, 13, 21, 11, 9, 8, 19, 1, 1, 9, 1, 24, 9, 20, 10, 6, 8, 5, 2, 6, 26, 18, 15, 20, 23, 14, 3, 4, 7, 1, 10, 13, 14, 4, 13, 3, 11, 1, 3, 12, 8, 16, 6, 13, 1, 13, 1, 3, 10, 14, 4, 5, 12, 3, 3, 18, 13, 8, 19, 12, 1, 4, 2, 17, 7, 6, 1, 10, 11, 7, 8, 24, 2, 1, 4, 15, 6, 3, 8, 10, 9, 5, 7, 9, 19, 15, 11, 13, 17, 1, 18, 2, 5, 10, 11, 1, 7, 18, 12, 7, 20, 12, 12, 11, 3, 3, 25, 1, 6, 21, 18, 14, 17, 10, 16, 3, 1, 12, 1, 10, 12, 15, 1, 1, 6, 13, 16, 12, 12, 10, 3, 1, 8, 17, 18, 8, 8, 19, 11, 5, 28, 18, 9, 1, 10, 2, 19, 4, 12, 1, 14, 5, 9, 1, 14, 1, 13, 12, 22, 21, 1, 11, 2, 21, 10, 1, 12, 2, 15, 7, 1, 16, 13, 18, 5, 1, 5, 9, 28, 14, 12, 9, 23, 9, 11, 5, 1, 2, 24, 3, 12, 2, 1, 19, 14, 8, 1, 18, 9, 16, 1, 8, 9, 22, 1, 1, 17, 12, 16, 1, 9, 12, 20, 2, 21, 1, 2, 11, 7, 17, 15, 12, 4, 6, 16, 24, 13, 12, 6, 19, 12, 22, 13, 23, 10, 12, 1, 9, 9, 13, 6, 8, 1, 7, 9, 25, 6, 1, 11, 6, 2, 19, 3, 1, 20, 7, 11, 6, 11, 18, 1, 25, 20, 13, 10, 7, 5, 13, 7, 17, 8, 11, 22, 9, 9, 15, 9, 1, 10, 14, 18, 8, 6, 14, 5, 7, 24, 5, 6, 1, 20, 21, 1, 28, 8, 9, 12, 14, 4, 13, 4, 1, 10, 1, 11, 5, 14, 13, 13, 1, 15, 12, 10, 9, 6, 13, 16, 5, 2, 3, 5, 1, 1, 2, 1, 17, 20, 7, 16, 11, 5, 8, 1, 1, 17, 15, 26, 1, 5, 15, 13, 3, 4, 26, 3, 23, 10, 12, 8, 22, 6, 1, 14, 10, 14, 2, 15, 21, 6, 10, 1, 19, 10, 20, 1, 3, 19, 8, 11, 6, 1, 11, 8, 1, 1, 2, 17, 1, 15, 5, 1, 12, 14, 1, 18, 1, 3, 1, 16, 1, 19, 3, 12, 14, 1, 21, 14, 19, 7, 17, 18, 3, 1, 1, 2, 6, 12, 12, 9, 12, 13, 6, 8, 3, 10, 1, 17, 14, 6, 18, 8, 3, 24, 9, 16, 8, 9, 9, 10, 2, 21, 5, 6, 8, 13, 9, 5, 4, 14, 9, 8, 10, 2, 13, 1, 12, 9, 1, 14, 3, 1, 2, 18, 17, 3, 19, 10, 14, 3, 20, 14, 22, 9, 4, 20, 14, 9, 4, 9, 18, 7, 10, 18, 2, 1, 10, 9, 1, 9, 1, 2, 14, 10, 2, 19, 8, 1, 9, 15, 12, 11, 10, 23, 9, 15, 16, 1, 1, 5, 18, 4, 11, 14, 10, 15, 14, 2, 2, 24, 7, 7, 22, 4, 22, 6, 6, 17, 8, 22, 10, 7, 10, 20, 9, 18, 10, 11, 6, 4, 8, 17, 6, 12, 8, 16, 7, 4, 12, 5, 1, 11, 20, 1, 1, 3, 11, 2, 20, 1, 1, 11, 10, 3, 12, 4, 14, 20, 16, 12, 4, 1, 7, 9, 2, 3, 1, 4, 17, 24, 6, 5, 8, 1, 21, 6, 8, 4, 17, 4, 8, 10, 9, 1, 1, 7, 23, 1, 7, 13, 7, 7, 18, 19, 8, 10, 14, 1, 14, 13, 14, 13, 1, 14, 28, 9, 7, 11, 6, 6, 13, 20, 8, 4, 11, 2, 1, 1, 1, 8, 12, 6, 1, 11, 7, 1, 4, 17, 8, 18, 17, 17, 15, 17, 15, 12, 6, 6, 1, 2, 15, 11, 7, 1, 25, 12, 1, 17, 1, 8, 11, 8, 23, 18, 1, 10, 5, 5, 12, 2, 1, 7, 11, 23, 19, 6, 21, 7, 14, 16, 22, 14, 9, 26, 6, 24, 14, 6, 9, 6, 5, 2];
Lower_Bound = [0, 8, 27, 33, 178, 191, 162, 181, 190, 185, 170, 189, 189, 202, 186, 190, 187, 188, 194, 242, 226, 237, 236, 247, 255, 269, 268, 269, 270, 294, 314, 324, 332, 6, 8, 14, 32, 157, 137, 153, 150, 202, 143, 150, 160, 173, 177, 166, 163, 174, 177, 189, 197, 213, 226, 227, 228, 255, 245, 259, 264, 276, 279, 320, 338, 336, 328, 46, 34, 38, 40, 47, 123, 122, 146, 135, 142, 150, 152, 153, 157, 159, 162, 172, 181, 188, 197, 205, 220, 233, 231, 240, 241, 243, 248, 292, 282, 283, 290, 302, 309, 47, 59, 55, 56, 53, 74, 112, 106, 127, 132, 149, 135, 138, 150, 151, 161, 173, 174, 175, 181, 194, 206, 218, 221, 222, 239, 257, 265, 284, 289, 301, 310, 311, 321, 91, 72, 60, 59, 64, 73, 87, 88, 100, 122, 123, 134, 155, 165, 177, 176, 178, 193, 194, 197, 215, 216, 221, 229, 257, 247, 259, 268, 277, 305, 300, 301, 325, 323, 95, 97, 74, 75, 65, 73, 100, 118, 121, 126, 125, 133, 142, 143, 189, 190, 185, 197, 207, 216, 216, 218, 239, 241, 252, 259, 282, 299, 288, 292, 298, 322, 335, 341, 135, 123, 110, 87, 75, 74, 83, 122, 116, 124, 131, 140, 165, 171, 182, 188, 190, 198, 199, 219, 230, 219, 230, 280, 279, 295, 282, 292, 297, 308, 334, 334, 342, 353, 138, 129, 120, 129, 84, 85, 95, 107, 115, 129, 134, 141, 165, 170, 176, 174, 193, 214, 206, 234, 236, 240, 248, 249, 259, 270, 275, 288, 301, 302, 317, 327, 336, 349, 160, 144, 109, 104, 102, 99, 100, 101, 102, 119, 126, 178, 167, 171, 172, 173, 188, 214, 215, 220, 235, 244, 247, 250, 276, 279, 344, 354, 362, 314, 336, 333, 347, 357, 140, 138, 123, 117, 107, 112, 102, 103, 106, 133, 142, 153, 159, 160, 171, 243, 244, 246, 263, 264, 279, 252, 251, 265, 266, 314, 332, 330, 354, 338, 337, 364, 361, 373, 160, 159, 132, 118, 125, 132, 125, 122, 123, 125, 137, 149, 180, 168, 236, 242, 245, 255, 279, 269, 270, 264, 272, 328, 304, 313, 320, 329, 339, 341, 372, 377, 385, 387, 165, 156, 151, 147, 138, 128, 126, 130, 129, 138, 146, 160, 193, 227, 228, 246, 246, 246, 265, 279, 282, 296, 275, 284, 288, 302, 311, 320, 338, 348, 366, 367, 377, 378, 161, 160, 165, 155, 149, 141, 142, 142, 150, 139, 162, 163, 179, 225, 224, 225, 232, 236, 267, 274, 259, 273, 275, 299, 306, 306, 310, 327, 333, 350, 353, 363, 366, 386, 163, 177, 167, 173, 177, 163, 157, 165, 160, 176, 177, 189, 194, 205, 219, 218, 221, 257, 257, 256, 257, 267, 270, 282, 286, 306, 316, 332, 341, 345, 346, 355, 357, 358, 205, 188, 235, 181, 183, 175, 176, 194, 188, 180, 184, 190, 198, 206, 206, 207, 214, 237, 238, 245, 252, 259, 278, 286, 300, 301, 314, 328, 329, 343, 367, 358, 368, 362, 229, 242, 229, 225, 236, 214, 197, 198, 208, 200, 188, 189, 200, 201, 205, 213, 231, 268, 251, 285, 270, 285, 288, 294, 295, 310, 321, 322, 347, 348, 365, 373, 374, 397, 234, 233, 223, 218, 213, 201, 199, 200, 206, 217, 196, 215, 218, 239, 230, 237, 251, 267, 289, 300, 291, 317, 296, 302, 317, 331, 334, 343, 349, 386, 381, 383, 415];
Upper_Bound = [0, 8, 27, 33, 178, 191, 162, 181, 190, 185, 170, 189, 189, 202, 186, 190, 187, 188, 194, 242, 226, 237, 236, 247, 255, 269, 268, 269, 270, 294, 314, 324, 332, 6, 8, 14, 32, 157, 137, 153, 150, 202, 143, 150, 160, 173, 177, 166, 163, 174, 177, 189, 197, 213, 226, 227, 228, 255, 245, 259, 264, 276, 279, 320, 338, 336, 328, 46, 34, 38, 40, 47, 123, 122, 146, 135, 142, 150, 152, 153, 157, 159, 162, 172, 181, 188, 197, 205, 220, 233, 231, 240, 241, 243, 248, 292, 282, 283, 290, 302, 309, 47, 59, 55, 56, 53, 74, 112, 106, 127, 132, 149, 135, 138, 150, 151, 161, 173, 174, 175, 181, 194, 206, 218, 221, 222, 239, 257, 265, 284, 289, 301, 310, 311, 321, 91, 72, 60, 59, 64, 73, 87, 88, 100, 122, 123, 134, 155, 165, 177, 176, 178, 193, 194, 197, 215, 216, 221, 229, 257, 247, 259, 268, 277, 305, 300, 301, 325, 323, 95, 97, 74, 75, 65, 73, 100, 118, 121, 126, 125, 133, 142, 143, 189, 190, 185, 197, 207, 216, 216, 218, 239, 241, 252, 259, 282, 299, 288, 292, 298, 322, 335, 341, 135, 123, 110, 87, 75, 74, 83, 122, 116, 124, 131, 140, 165, 171, 182, 188, 190, 198, 199, 219, 230, 219, 230, 280, 279, 295, 282, 292, 297, 308, 334, 334, 342, 353, 138, 129, 120, 129, 84, 85, 95, 107, 115, 129, 134, 141, 165, 170, 176, 174, 193, 214, 206, 234, 236, 240, 248, 249, 259, 270, 275, 288, 301, 302, 317, 327, 336, 349, 160, 144, 109, 104, 102, 99, 100, 101, 102, 119, 126, 178, 167, 171, 172, 173, 188, 214, 215, 220, 235, 244, 247, 250, 276, 279, 344, 354, 362, 314, 336, 333, 347, 357, 140, 138, 123, 117, 107, 112, 102, 103, 106, 133, 142, 153, 159, 160, 171, 243, 244, 246, 263, 264, 279, 252, 251, 265, 266, 314, 332, 330, 354, 338, 337, 364, 361, 373, 160, 159, 132, 118, 125, 132, 125, 122, 123, 125, 137, 149, 180, 168, 236, 242, 245, 255, 279, 269, 270, 264, 272, 328, 304, 313, 320, 329, 339, 341, 372, 377, 385, 387, 165, 156, 151, 147, 138, 128, 126, 130, 129, 138, 146, 160, 193, 227, 228, 246, 246, 246, 265, 279, 282, 296, 275, 284, 288, 302, 311, 320, 338, 348, 366, 367, 377, 378, 161, 160, 165, 155, 149, 141, 142, 142, 150, 139, 162, 163, 179, 225, 224, 225, 232, 236, 267, 274, 259, 273, 275, 299, 306, 306, 310, 327, 333, 350, 353, 363, 366, 386, 163, 177, 167, 173, 177, 163, 157, 165, 160, 176, 177, 189, 194, 205, 219, 218, 221, 257, 257, 256, 257, 267, 270, 282, 286, 306, 316, 332, 341, 345, 346, 355, 357, 358, 205, 188, 235, 181, 183, 175, 176, 194, 188, 180, 184, 190, 198, 206, 206, 207, 214, 237, 238, 245, 252, 259, 278, 286, 300, 301, 314, 328, 329, 343, 367, 358, 368, 362, 229, 242, 229, 225, 236, 214, 197, 198, 208, 200, 188, 189, 200, 201, 205, 213, 231, 268, 251, 285, 270, 285, 288, 294, 295, 310, 321, 322, 347, 348, 365, 373, 374, 397, 234, 233, 223, 218, 213, 201, 199, 200, 206, 217, 196, 215, 218, 239, 230, 237, 251, 267, 289, 300, 291, 317, 296, 302, 317, 331, 334, 343, 349, 386, 381, 383, 415];
Start = 1;
End = 576;
Time = 415;
